
Gurobi 9.5.1 (linux64) logging started Sun Jun 19 02:08:22 2022

Set parameter LogFile to value "../results/logs/log_Brightkite_edges_2_2_2022_06_19_02_07.log"
Gurobi Optimizer version 9.5.1 build v9.5.1rc2 (linux64)
Thread count: 8 physical cores, 8 logical processors, using up to 8 threads
Optimize a model with 4731 rows, 116456 columns and 41097 nonzeros
Model fingerprint: 0xcd81a84e
Variable types: 0 continuous, 116456 integer (116456 binary)
Coefficient statistics:
  Matrix range     [1e+00, 2e+00]
  Objective range  [1e+00, 1e+00]
  Bounds range     [1e+00, 1e+00]
  RHS range        [1e+00, 2e+00]
Found heuristic solution: objective 34706.000000
Presolve removed 3544 rows and 114873 columns
Presolve time: 0.07s
Presolved: 1187 rows, 1583 columns, 4401 nonzeros
Found heuristic solution: objective 34708.000000
Variable types: 0 continuous, 1583 integer (1520 binary)

Root relaxation: objective 3.475950e+04, 804 iterations, 0.00 seconds (0.00 work units)

    Nodes    |    Current Node    |     Objective Bounds      |     Work
 Expl Unexpl |  Obj  Depth IntInf | Incumbent    BestBd   Gap | It/Node Time

     0     0 34759.5000    0   63 34708.0000 34759.5000  0.15%     -    0s
H    0     0                    34711.000000 34759.5000  0.14%     -    0s
H    0     0                    34713.000000 34759.5000  0.13%     -    0s
     0     0 34724.0000    0   24 34713.0000 34724.0000  0.03%     -    0s
     0     0 34724.0000    0   24 34713.0000 34724.0000  0.03%     -    0s
     0     0 34724.0000    0   24 34713.0000 34724.0000  0.03%     -    0s
     0     0 34724.0000    0   24 34713.0000 34724.0000  0.03%     -    0s
     0     0 34724.0000    0   24 34713.0000 34724.0000  0.03%     -    0s
     0     2 34724.0000    0   24 34713.0000 34724.0000  0.03%     -    0s
*   46     3              10    34714.000000 34717.0000  0.01%  14.0    0s
*   55     2              12    34716.000000 34716.0000  0.00%  12.2    0s

Cutting planes:
  Gomory: 26
  Cover: 3
  MIR: 36
  GUB cover: 70
  Zero half: 7
  RLT: 1

Explored 56 nodes (1634 simplex iterations) in 0.26 seconds (0.23 work units)
Thread count was 8 (of 8 available processors)

Solution count 6: 34716 34714 34713 ... 34706

Optimal solution found (tolerance 0.00e+00)
Best objective 3.471600000000e+04, best bound 3.471600000000e+04, gap 0.0000%
